50

 0   1   1   2   2   3   3   4   4   5   5   6   6   7   7   8   8   9   9  10  10  11  11  12  12  13  13  14  14  15  15  16  16  17  17  18  18  19  19  20  20  21  21  22  22  23  23  24  24  25  
 1   0   2   1   3   2   4   3   5   4   6   5   7   6   8   7   9   8  10   9  11  10  12  11  13  12  14  13  15  14  16  15  17  16  18  17  19  18  20  19  21  20  22  21  23  22  24  23  25  24  
 1   2   0   1   1   2   2   3   3   4   4   5   5   6   6   7   7   8   8   9   9  10  10  11  11  12  12  13  13  14  14  15  15  16  16  17  17  18  18  19  19  20  20  21  21  22  22  23  23  24  
 2   1   1   0   2   1   3   2   4   3   5   4   6   5   7   6   8   7   9   8  10   9  11  10  12  11  13  12  14  13  15  14  16  15  17  16  18  17  19  18  20  19  21  20  22  21  23  22  24  23  
 2   3   1   2   0   1   1   2   2   3   3   4   4   5   5   6   6   7   7   8   8   9   9  10  10  11  11  12  12  13  13  14  14  15  15  16  16  17  17  18  18  19  19  20  20  21  21  22  22  23  
 3   2   2   1   1   0   2   1   3   2   4   3   5   4   6   5   7   6   8   7   9   8  10   9  11  10  12  11  13  12  14  13  15  14  16  15  17  16  18  17  19  18  20  19  21  20  22  21  23  22  
 3   4   2   3   1   2   0   1   1   2   2   3   3   4   4   5   5   6   6   7   7   8   8   9   9  10  10  11  11  12  12  13  13  14  14  15  15  16  16  17  17  18  18  19  19  20  20  21  21  22  
 4   3   3   2   2   1   1   0   2   1   3   2   4   3   5   4   6   5   7   6   8   7   9   8  10   9  11  10  12  11  13  12  14  13  15  14  16  15  17  16  18  17  19  18  20  19  21  20  22  21  
 4   5   3   4   2   3   1   2   0   1   1   2   2   3   3   4   4   5   5   6   6   7   7   8   8   9   9  10  10  11  11  12  12  13  13  14  14  15  15  16  16  17  17  18  18  19  19  20  20  21  
 5   4   4   3   3   2   2   1   1   0   2   1   3   2   4   3   5   4   6   5   7   6   8   7   9   8  10   9  11  10  12  11  13  12  14  13  15  14  16  15  17  16  18  17  19  18  20  19  21  20  
 5   6   4   5   3   4   2   3   1   2   0   1   1   2   2   3   3   4   4   5   5   6   6   7   7   8   8   9   9  10  10  11  11  12  12  13  13  14  14  15  15  16  16  17  17  18  18  19  19  20  
 6   5   5   4   4   3   3   2   2   1   1   0   2   1   3   2   4   3   5   4   6   5   7   6   8   7   9   8  10   9  11  10  12  11  13  12  14  13  15  14  16  15  17  16  18  17  19  18  20  19  
 6   7   5   6   4   5   3   4   2   3   1   2   0   1   1   2   2   3   3   4   4   5   5   6   6   7   7   8   8   9   9  10  10  11  11  12  12  13  13  14  14  15  15  16  16  17  17  18  18  19  
 7   6   6   5   5   4   4   3   3   2   2   1   1   0   2   1   3   2   4   3   5   4   6   5   7   6   8   7   9   8  10   9  11  10  12  11  13  12  14  13  15  14  16  15  17  16  18  17  19  18  
 7   8   6   7   5   6   4   5   3   4   2   3   1   2   0   1   1   2   2   3   3   4   4   5   5   6   6   7   7   8   8   9   9  10  10  11  11  12  12  13  13  14  14  15  15  16  16  17  17  18  
 8   7   7   6   6   5   5   4   4   3   3   2   2   1   1   0   2   1   3   2   4   3   5   4   6   5   7   6   8   7   9   8  10   9  11  10  12  11  13  12  14  13  15  14  16  15  17  16  18  17  
 8   9   7   8   6   7   5   6   4   5   3   4   2   3   1   2   0   1   1   2   2   3   3   4   4   5   5   6   6   7   7   8   8   9   9  10  10  11  11  12  12  13  13  14  14  15  15  16  16  17  
 9   8   8   7   7   6   6   5   5   4   4   3   3   2   2   1   1   0   2   1   3   2   4   3   5   4   6   5   7   6   8   7   9   8  10   9  11  10  12  11  13  12  14  13  15  14  16  15  17  16  
 9  10   8   9   7   8   6   7   5   6   4   5   3   4   2   3   1   2   0   1   1   2   2   3   3   4   4   5   5   6   6   7   7   8   8   9   9  10  10  11  11  12  12  13  13  14  14  15  15  16  
10   9   9   8   8   7   7   6   6   5   5   4   4   3   3   2   2   1   1   0   2   1   3   2   4   3   5   4   6   5   7   6   8   7   9   8  10   9  11  10  12  11  13  12  14  13  15  14  16  15  
10  11   9  10   8   9   7   8   6   7   5   6   4   5   3   4   2   3   1   2   0   1   1   2   2   3   3   4   4   5   5   6   6   7   7   8   8   9   9  10  10  11  11  12  12  13  13  14  14  15  
11  10  10   9   9   8   8   7   7   6   6   5   5   4   4   3   3   2   2   1   1   0   2   1   3   2   4   3   5   4   6   5   7   6   8   7   9   8  10   9  11  10  12  11  13  12  14  13  15  14  
11  12  10  11   9  10   8   9   7   8   6   7   5   6   4   5   3   4   2   3   1   2   0   1   1   2   2   3   3   4   4   5   5   6   6   7   7   8   8   9   9  10  10  11  11  12  12  13  13  14  
12  11  11  10  10   9   9   8   8   7   7   6   6   5   5   4   4   3   3   2   2   1   1   0   2   1   3   2   4   3   5   4   6   5   7   6   8   7   9   8  10   9  11  10  12  11  13  12  14  13  
12  13  11  12  10  11   9  10   8   9   7   8   6   7   5   6   4   5   3   4   2   3   1   2   0   1   1   2   2   3   3   4   4   5   5   6   6   7   7   8   8   9   9  10  10  11  11  12  12  13  
13  12  12  11  11  10  10   9   9   8   8   7   7   6   6   5   5   4   4   3   3   2   2   1   1   0   2   1   3   2   4   3   5   4   6   5   7   6   8   7   9   8  10   9  11  10  12  11  13  12  
13  14  12  13  11  12  10  11   9  10   8   9   7   8   6   7   5   6   4   5   3   4   2   3   1   2   0   1   1   2   2   3   3   4   4   5   5   6   6   7   7   8   8   9   9  10  10  11  11  12  
14  13  13  12  12  11  11  10  10   9   9   8   8   7   7   6   6   5   5   4   4   3   3   2   2   1   1   0   2   1   3   2   4   3   5   4   6   5   7   6   8   7   9   8  10   9  11  10  12  11  
14  15  13  14  12  13  11  12  10  11   9  10   8   9   7   8   6   7   5   6   4   5   3   4   2   3   1   2   0   1   1   2   2   3   3   4   4   5   5   6   6   7   7   8   8   9   9  10  10  11  
15  14  14  13  13  12  12  11  11  10  10   9   9   8   8   7   7   6   6   5   5   4   4   3   3   2   2   1   1   0   2   1   3   2   4   3   5   4   6   5   7   6   8   7   9   8  10   9  11  10  
15  16  14  15  13  14  12  13  11  12  10  11   9  10   8   9   7   8   6   7   5   6   4   5   3   4   2   3   1   2   0   1   1   2   2   3   3   4   4   5   5   6   6   7   7   8   8   9   9  10  
16  15  15  14  14  13  13  12  12  11  11  10  10   9   9   8   8   7   7   6   6   5   5   4   4   3   3   2   2   1   1   0   2   1   3   2   4   3   5   4   6   5   7   6   8   7   9   8  10   9  
16  17  15  16  14  15  13  14  12  13  11  12  10  11   9  10   8   9   7   8   6   7   5   6   4   5   3   4   2   3   1   2   0   1   1   2   2   3   3   4   4   5   5   6   6   7   7   8   8   9  
17  16  16  15  15  14  14  13  13  12  12  11  11  10  10   9   9   8   8   7   7   6   6   5   5   4   4   3   3   2   2   1   1   0   2   1   3   2   4   3   5   4   6   5   7   6   8   7   9   8  
17  18  16  17  15  16  14  15  13  14  12  13  11  12  10  11   9  10   8   9   7   8   6   7   5   6   4   5   3   4   2   3   1   2   0   1   1   2   2   3   3   4   4   5   5   6   6   7   7   8  
18  17  17  16  16  15  15  14  14  13  13  12  12  11  11  10  10   9   9   8   8   7   7   6   6   5   5   4   4   3   3   2   2   1   1   0   2   1   3   2   4   3   5   4   6   5   7   6   8   7  
18  19  17  18  16  17  15  16  14  15  13  14  12  13  11  12  10  11   9  10   8   9   7   8   6   7   5   6   4   5   3   4   2   3   1   2   0   1   1   2   2   3   3   4   4   5   5   6   6   7  
19  18  18  17  17  16  16  15  15  14  14  13  13  12  12  11  11  10  10   9   9   8   8   7   7   6   6   5   5   4   4   3   3   2   2   1   1   0   2   1   3   2   4   3   5   4   6   5   7   6  
19  20  18  19  17  18  16  17  15  16  14  15  13  14  12  13  11  12  10  11   9  10   8   9   7   8   6   7   5   6   4   5   3   4   2   3   1   2   0   1   1   2   2   3   3   4   4   5   5   6  
20  19  19  18  18  17  17  16  16  15  15  14  14  13  13  12  12  11  11  10  10   9   9   8   8   7   7   6   6   5   5   4   4   3   3   2   2   1   1   0   2   1   3   2   4   3   5   4   6   5  
20  21  19  20  18  19  17  18  16  17  15  16  14  15  13  14  12  13  11  12  10  11   9  10   8   9   7   8   6   7   5   6   4   5   3   4   2   3   1   2   0   1   1   2   2   3   3   4   4   5  
21  20  20  19  19  18  18  17  17  16  16  15  15  14  14  13  13  12  12  11  11  10  10   9   9   8   8   7   7   6   6   5   5   4   4   3   3   2   2   1   1   0   2   1   3   2   4   3   5   4  
21  22  20  21  19  20  18  19  17  18  16  17  15  16  14  15  13  14  12  13  11  12  10  11   9  10   8   9   7   8   6   7   5   6   4   5   3   4   2   3   1   2   0   1   1   2   2   3   3   4  
22  21  21  20  20  19  19  18  18  17  17  16  16  15  15  14  14  13  13  12  12  11  11  10  10   9   9   8   8   7   7   6   6   5   5   4   4   3   3   2   2   1   1   0   2   1   3   2   4   3  
22  23  21  22  20  21  19  20  18  19  17  18  16  17  15  16  14  15  13  14  12  13  11  12  10  11   9  10   8   9   7   8   6   7   5   6   4   5   3   4   2   3   1   2   0   1   1   2   2   3  
23  22  22  21  21  20  20  19  19  18  18  17  17  16  16  15  15  14  14  13  13  12  12  11  11  10  10   9   9   8   8   7   7   6   6   5   5   4   4   3   3   2   2   1   1   0   2   1   3   2  
23  24  22  23  21  22  20  21  19  20  18  19  17  18  16  17  15  16  14  15  13  14  12  13  11  12  10  11   9  10   8   9   7   8   6   7   5   6   4   5   3   4   2   3   1   2   0   1   1   2  
24  23  23  22  22  21  21  20  20  19  19  18  18  17  17  16  16  15  15  14  14  13  13  12  12  11  11  10  10   9   9   8   8   7   7   6   6   5   5   4   4   3   3   2   2   1   1   0   2   1  
24  25  23  24  22  23  21  22  20  21  19  20  18  19  17  18  16  17  15  16  14  15  13  14  12  13  11  12  10  11   9  10   8   9   7   8   6   7   5   6   4   5   3   4   2   3   1   2   0   1  
25  24  24  23  23  22  22  21  21  20  20  19  19  18  18  17  17  16  16  15  15  14  14  13  13  12  12  11  11  10  10   9   9   8   8   7   7   6   6   5   5   4   4   3   3   2   2   1   1   0  

 0   0   0  74   0  74  62   0   0  18   0  99   0  92   0   0   0   0  83  63  42   0  81   0  66   0   0   0   0   0  24  93  10  25   0  61   0  43   0   0   0   0   0   0  95   0   0  60  19  37  
 0   0   6   0   0   0  47  55  95   0  20  46  75   0  56   0   0  55  45   0   0   0   0  11  61  46  18  56   0  76   0   0  51   0   1  38  88   0   0  18  16  40  52  62   0  84  63   0   0   0  
37  64   0   0   0  68  14  25  20   0  82  27   0  35   0   0   0  31  17   0  78   0   4  14  18  42  66  92   0   3   0   1  22  68  80  63  33  28   0   0   0  12  71  93  24   0  88  18  60   9  
38   0   0   0   0  21  12   0   0  20   0   0   0  16   0  61   0   0  53  99  17  90  46   0   0   0  30   0   0   0   0  60  47   3   0  78   0  72   0   0   0   0   0  86  12   0   0  48  90  58  
 0   0   0   0   0   0   0   0   0  85   0   0   0  41   0  64  47   0   0   6   0  55   0   0   0  26  79   0  72   0  11   0   0   0   0   0   0   0  70   0  37   0   0   0   0  43   0   0   0   0  
76   0  89  12   0   0  97   0   0  85   0  33   0  56   0  91   0   0  43  25  88  78  98   0   0  99  83   0   0   0  35  17  83  31  64   6   4  93   0   0   0   0   0  11  19  80  57  79  29  74  
98  73  95  20   0  99   0   0  32  58   0  13   0  46   0  10  69   0  92   1   0  33  73   0  40  10  87  55   0  13  84  17  72  36  66   2   3   3   0   0  76  17   0   0  92  78  10  48  51  17  
 0  21  62   0   0   0   0   0   0   0  20  97   0   0   0   0   0   3  79   0   0   0   0  94  98   0   0  94   1  85   0   0   0   0   0   8   0   0   0   0   0  42  61  54   0   0   3   0   0   0  
 0   9  21   0   0   0  90   0   0   0  93   0  93  96  97  50  90   3  94  70   0  93   0   0  56   8  47   4   0  37  34   0  99   0  40  25  31  40   0  26  91  54  59   0  35  21   0   0   0   0  
66   0   0  94  27  56  37   0   0   0   0   0   0  76   0   8  62  83   0  45   0  59  29   0   0  80  43   0  26   0  33  27  15   0  28   0  14  31  92   0  86   0   0   0  10  29   0   3   0  52  
 0  53  92   0   0   0   0   6  98   0   0  20   0   0  34   0   0  74  94   0   0   0   0  43  60   0   0  13   0  53   0   0  87   0   3  64   0   0   0  99   0  35  56  35   0   0  79   0   0  88  
98  26  37   0   0  80  21  65   0   0   1   0   0  53   0   0   0   0  41   0  73   0  66  53  60   0   0  26   0   3   0   1  27  43  24   4  50  99   0   0   0   6  60  60  60   0  34  35  22  47  
 0  53   0   0   0   0   0   0  37   0   0   0   0   0   3  40   0   0   0  11   0   0   0   0   1  42  80   0   0   0  88   0  62   0  74   0  20   0   0  85  34  38  38   0   0  64   0   0   0  70  
20   0  70  83  31  16  53   0  33  82   0  64   0   0   0   6  10   0   8  63   0  97  53   0  93  42  14   0  92   0  13  99  80  18  64  16  86  92  73   0  12  22   0   0  21   1   0  48  29  86  
 0   9   0   0   0   0   0   0  45   0  80   0  29   0   0  88   0  15   0   0   0   0   0   0  11   7   0  31   0  90   0   0  41   0  24   0  79   0   0  73  85  73  65  15   0  72   0   0   0   0  
 0   0   0  94  36  56  70   0  33  96   0   0  12  77   0   0  71   0  82  76   0  47  74   0  82   7  19   0  20   0  18  97  60   0  73  62  39  85  36   0  59  53   0   0  24  73   0  14   0   0  
 0  43  15   0  80   0  52   0  24   4   0   0   0  64   0  60   0   0   0  49   0  60   0   0   0  50  43   0  64   0  65   0  46   0  84   0  86  84  44   0  98   0   0   0   0  53   0   0   0   0  
 0  66  49   0   0   0   0  83  24   0  13   0   0   0  77   0   0   0  38   0   0   0   0   1  90   0   0  32   0  91   0   0  38   0  93  84  15   0   0  89   0  93  50  44   0   0   0   0   0   0  
45  26  92  63   0  68  35   8   5   0  70  23   0  84   0   9   0  83   0  63  37   0  34   8  31  99  60  84   0  28   0  17  35  17  17  96  77  21   0   0   0  26  74  11  17  96  33  18  47  18  
56   0   0  47  74  57  97   0  10  58   0   0  26  40   0  40  71   0  54   0   0  13  55   0   0  20  94   0  91   0  82  96  73  57  30   9  11  69  37   0  75   0   0   0  95  75   0   7  27  22  
54   0  30  73   0   8   0   0   0   0   0  36   0   0   0   0   0   0  51   0   0   0  61   0   0   0   0   0   0  76   0  48   0  23   0  29   0  40   0   0   0   0   0   0  55   0   5  40  87  80  
 0   0   0  78  41  20  95   0  42  53   0   0   0  27  87  16  35   0   0  13  39   0  43   0   0  58  97   0  82   0  52  33  72   0  85   0  23  37  19   0  72   0   0   0  68  24   0  58   0   0  
12   0   1  76   0  22  77   0  83  37   0   8   0  58   0  95   0   0  34  45  20  41   0   0  84  67   5  54   0   0   0  29  32  11   1  74  29  96   0   0   0   0   0   0  96  20  80  54  95  84  
 0  51  52   0   0   0   0  12   0   0  24  35   0   0   0   0   0  71  23  76   0   0   0   0  37   0   0  65   0  76   0   0   0   0   0   0   0  74   0   0   0  76  41  74   0   0  95  18   0   0  
 0  86   9   0   0   0  12  50  39   0  80  35  31  90  98  87   0  43  80   0   0   0  74  86   0   9   4  47   0  87   0   0  77   0  86  92  26  34   0  40   7  52  82  79  74  94  79  74   0   0  
 0  51  73   0  40  81  74   0  86  27  68   0  37  63   9  68  48   0  97  81   0  51  26   0   8   0  35   0  37   0   2   1  42   0  49  25  81  43  23  88  37  66   0   0  86   8   0  59   0   0  
 0  53  16  31  40  48  35  37  74  43   0   0  22  30   0  91  22   0  81  54   0  66  54   0  84  49   0   0  87   0  64  61  67  67  17  11  55  84  77   0  73  86   0   0  76  17   0  24   0   0  
 0  45  34   0   0   0  29  68  89   0  88  74   0  56  21   0   0  36  98   0  24   0   0  56   2   0   0   0   0  99   0   0  19   0  90   8  87   0   0  62   0  48  48  39   5   0  12  46   0   0  
 0   0   0   0  85  27   0   0   0  83  24   0   0  77   0  88  72   0   0  22   0  22   0   0   0  42  34   0   0  46  44   0   0   0   0   0   0   0  83   0   8   0   0   0   0  28   1   0   0   0  
 0  44  53   0   0   0  54  42  45   0  83  70   0   0  80   0   0  86  10   0   0   0   0  70  98   0   0  87   0   0   0   0  34   0  62  17  19   0   0  66   0  34  67  94   0   0  97   0   0  93  
 0   0   0   0  89  61  37   0  83  58   0   0  11  48   0  99  34   0   0  98  77   1   0   0   0  54  41   0  56   0   0   0  47   0  13   0  14  79  19   0  27   0   0   0   0  21   0  21  65   0  
21   0  48  74   0   8  29   0   0  43   0  37   0  77   0  74   0   0  97  51  10  71  83   0   0  71  87   0   0   0   0   0  23  11  10  29  74  83   0   0   0   1   0   0  16   0   7  36  60  66  
94  39   7  34   0  72  46  56  50  55  10  56  72  52  22  96  58   5  32  25   0  94  16   0  73  27  81  76   0  87  10  80   0  88  98  20  66   2   0   0  81  29   6   0  90  64  39  86   0  83  
73   0  29   4   0  44  62   0   0   0   0  93   0  28   0   0   0   0  45  53  94   0  60   0   0   0   0   0   0   0   0  26  96   0   0  58   0  26   0   0   0   0   0   0  90   0  86  30  70  84  
 0  47  48   0   0  69  43   0   6   7  25  22  14  46  56   7  52  33  75  40  43  54  96   0  57  61  91  72   0  92  22  75  17   0   0  61  29  81   0  75  28  19  68   0  47  20  70  89   0   1  
69  66  21   1   0  49  32  81  21   0  21   4   0  40   0  46   0  21  68  40   1   0  19   0  64  16  86  68   0  67   0  25   2  29  89   0  26  98   0   0   0  71  81  68  90   0  92  25  29  92  
 0  90  20   0   0   1  81   0   1  61  70  10   6  40  81  85  10   1   1  25  11   3  47   0  86  92  67  73   0  51  20  79  30   0  70  65   0  47   0  97  30  42  13   0  18  18   0  88   0   0  
98   0  55  75   0  51  12   0  77  30   0  79   0  73   0  85  89   0  82  50  92  43   8   0  45  80  90   0   0   0  29  72  10  37  10  35  49   0   0   0  80  71   0   0   5  33   1  40  69  57  
 0   0   0   0  81   0   0   0   0  18   0   0   0  70   0  48  86   0   0  66   0  46   0   0   0  56  63   0  15   0  52   0   0   0   0   0   0   0   0   0  59   0   0   0   0  82   0   0   0   0  
 0  47   0   0   0   0   0   0  81   0  37   0  50   0  71   0   0  31   0   0   0   0   0   0  76  59   0  98   0  42   0   0   0   0  34   0  73   0   0   0  36  95  11  78   0   7   0   0   0   0  
 0   0   0   0  50   0  76   0  63   0   0   0  37  95  72  49  22   0   0  59   0  53   0   0  34  83  25   0  34   0   1   0  87   0  83   0  47  87  88  17   0  46   0   0   0  78   0   0   0   0  
 0  44  47   0   0   0  57  24  92   0  29  81  90  18  89  85   0  92  55   0   0   0   0  77  24  15  32  69   0  97   0   0  23   0  45  25  33  68   0  45  33   0  45  68  82  87  71   8   0   0  
 0  13  52   0   0   0   0  56  46   0  73  45  40   0  35   0   0  84  53   0   0   0   0  46  16  12   0  35   0  70  74   0  56   0  58  82  13   0   0  65   0  88   0  65   0   0   0   0   0   0  
 0  53  17   0   0   0   0  87   0   0  44  90   0   0  15   0   0  38  61   0   0   0   0  68  63   0   0  33   0  96   0  16  74   0   0  80   0   0   0  72   0  62  99   0   0  81   4   0   0   0  
99   0   7  50   0  14  90   0  74  60   0  61  63  78   0  70   0   0  12  44  65  32  83   0  43  54  39  64   0   0   0  95  27   4   1  53  98   1   0   0   0  68   0   0   0  10   5  45  78  19  
 0  89   0   0  83   4  90   0  35  35   0   0  39   3  26  46  90   0  23  19   0  31  45   0  77  39  71   0  39   0  26   0  21  11  23   0  37  63   1  15  65  83   0   0  80   0   0  13   0   0  
 0  84   6   0   0  29  94  68   0   0  73  41   0   0   0   0   0   0  40   0   6   0  94   2  41   0   0  24   0  18   0   9  76  34  53  16   0   3   0   0   0  56   0   2  62   0   0  60  38  36  
73   0  11  63   0  65  70   0  70  98   0  26  76  76   0  77   0   0  48   4  97  41  37   0  35  67  12  15   0   0  30  62  29  79  52  28  30  17   0   0   0  73   0   0  21  81  13   0  66  82  
72   0  54  61   0   1  20   0   0   0   0  93   0  18   0   0   0   0  22  99   3   0  54   0   0   0   0   0   0   0   0  31   0  72   0  99   0  14   0   0   0   0   0   0  13   0  34  21   0  79  
72   0  22  23   0  67  16   0   0   0   0  63   0  11   0  49   0   0  13  62  52   0  58   0   0   0   0  18   0   0   0  14  96  74  14  32   0  15   0   0   0   0   0   0  96   0  31  75  74   0  
